;---
; using 8-bit bit-vectors as characters
; check membership of .Net regex
; regexA = \w+([-+.]\w+)*@\w+([-.]\w+)*\.\w+([-.]\w+)*([,;]\s*\w+([-+.]\w+)*@\w+([-.]\w+)*\.\w+([-.]\w+)*)*
;---
;(set-info :status sat)
;(set-option :print-success true)
(set-logic QF_S)

(declare-const regexA RegLan)
(declare-const x String)

;witness1: "\x0\u00841@m\u00CD\u00B5.\u00AA.\u00AA-_\u00C12\u00DC\u00F4-2-\u00B5;\u007F\u0095"
(define-fun Witness1 () String (str.++ "\u{00}" (str.++ "\u{84}" (str.++ "1" (str.++ "@" (str.++ "m" (str.++ "\u{cd}" (str.++ "\u{b5}" (str.++ "." (str.++ "\u{aa}" (str.++ "." (str.++ "\u{aa}" (str.++ "-" (str.++ "_" (str.++ "\u{c1}" (str.++ "2" (str.++ "\u{dc}" (str.++ "\u{f4}" (str.++ "-" (str.++ "2" (str.++ "-" (str.++ "\u{b5}" (str.++ ";" (str.++ "\u{7f}" (str.++ "\u{95}" "")))))))))))))))))))))))))
;witness2: "8\u00BA\u00AA8@\u00EF.\u00F1.Z;\xA \u0085h+\u00DC@x.\u00AAk\u00C6\u00F63;\u00E1a7\u00B5@u.98X\u00A3\u008A"
(define-fun Witness2 () String (str.++ "8" (str.++ "\u{ba}" (str.++ "\u{aa}" (str.++ "8" (str.++ "@" (str.++ "\u{ef}" (str.++ "." (str.++ "\u{f1}" (str.++ "." (str.++ "Z" (str.++ ";" (str.++ "\u{0a}" (str.++ " " (str.++ "\u{85}" (str.++ "h" (str.++ "+" (str.++ "\u{dc}" (str.++ "@" (str.++ "x" (str.++ "." (str.++ "\u{aa}" (str.++ "k" (str.++ "\u{c6}" (str.++ "\u{f6}" (str.++ "3" (str.++ ";" (str.++ "\u{e1}" (str.++ "a" (str.++ "7" (str.++ "\u{b5}" (str.++ "@" (str.++ "u" (str.++ "." (str.++ "9" (str.++ "8" (str.++ "X" (str.++ "\u{a3}" (str.++ "\u{8a}" "")))))))))))))))))))))))))))))))))))))))

(assert (= regexA (re.++ (re.+ (re.union (re.range "0" "9")(re.union (re.range "A" "Z")(re.union (re.range "_" "_")(re.union (re.range "a" "z")(re.union (re.range "\u{aa}" "\u{aa}")(re.union (re.range "\u{b5}" "\u{b5}")(re.union (re.range "\u{ba}" "\u{ba}")(re.union (re.range "\u{c0}" "\u{d6}")(re.union (re.range "\u{d8}" "\u{f6}") (re.range "\u{f8}" "\u{ff}")))))))))))(re.++ (re.* (re.++ (re.union (re.range "+" "+") (re.range "-" ".")) (re.+ (re.union (re.range "0" "9")(re.union (re.range "A" "Z")(re.union (re.range "_" "_")(re.union (re.range "a" "z")(re.union (re.range "\u{aa}" "\u{aa}")(re.union (re.range "\u{b5}" "\u{b5}")(re.union (re.range "\u{ba}" "\u{ba}")(re.union (re.range "\u{c0}" "\u{d6}")(re.union (re.range "\u{d8}" "\u{f6}") (re.range "\u{f8}" "\u{ff}")))))))))))))(re.++ (re.range "@" "@")(re.++ (re.+ (re.union (re.range "0" "9")(re.union (re.range "A" "Z")(re.union (re.range "_" "_")(re.union (re.range "a" "z")(re.union (re.range "\u{aa}" "\u{aa}")(re.union (re.range "\u{b5}" "\u{b5}")(re.union (re.range "\u{ba}" "\u{ba}")(re.union (re.range "\u{c0}" "\u{d6}")(re.union (re.range "\u{d8}" "\u{f6}") (re.range "\u{f8}" "\u{ff}")))))))))))(re.++ (re.* (re.++ (re.range "-" ".") (re.+ (re.union (re.range "0" "9")(re.union (re.range "A" "Z")(re.union (re.range "_" "_")(re.union (re.range "a" "z")(re.union (re.range "\u{aa}" "\u{aa}")(re.union (re.range "\u{b5}" "\u{b5}")(re.union (re.range "\u{ba}" "\u{ba}")(re.union (re.range "\u{c0}" "\u{d6}")(re.union (re.range "\u{d8}" "\u{f6}") (re.range "\u{f8}" "\u{ff}")))))))))))))(re.++ (re.range "." ".")(re.++ (re.+ (re.union (re.range "0" "9")(re.union (re.range "A" "Z")(re.union (re.range "_" "_")(re.union (re.range "a" "z")(re.union (re.range "\u{aa}" "\u{aa}")(re.union (re.range "\u{b5}" "\u{b5}")(re.union (re.range "\u{ba}" "\u{ba}")(re.union (re.range "\u{c0}" "\u{d6}")(re.union (re.range "\u{d8}" "\u{f6}") (re.range "\u{f8}" "\u{ff}")))))))))))(re.++ (re.* (re.++ (re.range "-" ".") (re.+ (re.union (re.range "0" "9")(re.union (re.range "A" "Z")(re.union (re.range "_" "_")(re.union (re.range "a" "z")(re.union (re.range "\u{aa}" "\u{aa}")(re.union (re.range "\u{b5}" "\u{b5}")(re.union (re.range "\u{ba}" "\u{ba}")(re.union (re.range "\u{c0}" "\u{d6}")(re.union (re.range "\u{d8}" "\u{f6}") (re.range "\u{f8}" "\u{ff}"))))))))))))) (re.* (re.++ (re.union (re.range "," ",") (re.range ";" ";"))(re.++ (re.* (re.union (re.range "\u{09}" "\u{0d}")(re.union (re.range " " " ")(re.union (re.range "\u{85}" "\u{85}") (re.range "\u{a0}" "\u{a0}")))))(re.++ (re.+ (re.union (re.range "0" "9")(re.union (re.range "A" "Z")(re.union (re.range "_" "_")(re.union (re.range "a" "z")(re.union (re.range "\u{aa}" "\u{aa}")(re.union (re.range "\u{b5}" "\u{b5}")(re.union (re.range "\u{ba}" "\u{ba}")(re.union (re.range "\u{c0}" "\u{d6}")(re.union (re.range "\u{d8}" "\u{f6}") (re.range "\u{f8}" "\u{ff}")))))))))))(re.++ (re.* (re.++ (re.union (re.range "+" "+") (re.range "-" ".")) (re.+ (re.union (re.range "0" "9")(re.union (re.range "A" "Z")(re.union (re.range "_" "_")(re.union (re.range "a" "z")(re.union (re.range "\u{aa}" "\u{aa}")(re.union (re.range "\u{b5}" "\u{b5}")(re.union (re.range "\u{ba}" "\u{ba}")(re.union (re.range "\u{c0}" "\u{d6}")(re.union (re.range "\u{d8}" "\u{f6}") (re.range "\u{f8}" "\u{ff}")))))))))))))(re.++ (re.range "@" "@")(re.++ (re.+ (re.union (re.range "0" "9")(re.union (re.range "A" "Z")(re.union (re.range "_" "_")(re.union (re.range "a" "z")(re.union (re.range "\u{aa}" "\u{aa}")(re.union (re.range "\u{b5}" "\u{b5}")(re.union (re.range "\u{ba}" "\u{ba}")(re.union (re.range "\u{c0}" "\u{d6}")(re.union (re.range "\u{d8}" "\u{f6}") (re.range "\u{f8}" "\u{ff}")))))))))))(re.++ (re.* (re.++ (re.range "-" ".") (re.+ (re.union (re.range "0" "9")(re.union (re.range "A" "Z")(re.union (re.range "_" "_")(re.union (re.range "a" "z")(re.union (re.range "\u{aa}" "\u{aa}")(re.union (re.range "\u{b5}" "\u{b5}")(re.union (re.range "\u{ba}" "\u{ba}")(re.union (re.range "\u{c0}" "\u{d6}")(re.union (re.range "\u{d8}" "\u{f6}") (re.range "\u{f8}" "\u{ff}")))))))))))))(re.++ (re.range "." ".")(re.++ (re.+ (re.union (re.range "0" "9")(re.union (re.range "A" "Z")(re.union (re.range "_" "_")(re.union (re.range "a" "z")(re.union (re.range "\u{aa}" "\u{aa}")(re.union (re.range "\u{b5}" "\u{b5}")(re.union (re.range "\u{ba}" "\u{ba}")(re.union (re.range "\u{c0}" "\u{d6}")(re.union (re.range "\u{d8}" "\u{f6}") (re.range "\u{f8}" "\u{ff}"))))))))))) (re.* (re.++ (re.range "-" ".") (re.+ (re.union (re.range "0" "9")(re.union (re.range "A" "Z")(re.union (re.range "_" "_")(re.union (re.range "a" "z")(re.union (re.range "\u{aa}" "\u{aa}")(re.union (re.range "\u{b5}" "\u{b5}")(re.union (re.range "\u{ba}" "\u{ba}")(re.union (re.range "\u{c0}" "\u{d6}")(re.union (re.range "\u{d8}" "\u{f6}") (re.range "\u{f8}" "\u{ff}")))))))))))))))))))))))))))))))))

;check that the regex contains some x
(assert (str.in_re x regexA))
;check also the concrete witnesses
(assert (str.in_re Witness1 regexA))
(assert (str.in_re Witness2 regexA))
(check-sat)
